# Objective value = 1.9464172965985017e+03
x[0] 0
x[1] 0
x[2] 0
x[3] 1
x[4] 1
x[5] 0
x[6] 0
x[7] 1
x[8] 1
x[9] 0
x[10] 1
x[11] 1
x[12] 1
x[13] 1
x[14] 0
x[15] 1
x[16] 1
x[17] 0
x[18] 0
x[19] 1
x[20] 1
x[21] 1
x[22] 1
x[23] 1
x[24] 1
x[25] 1
x[26] 0
x[27] 1
x[28] 0
x[29] 1
x[30] 1
x[31] 0
x[32] 1
x[33] 1
x[34] 0
x[35] 1
x[36] 1
x[37] 0
x[38] 0
x[39] 1
x[40] 0
x[41] 0
x[42] 1
x[43] 1
x[44] 1
x[45] 0
x[46] 1
x[47] 1
x[48] 1
x[49] 1
x[50] 1
x[51] 1
x[52] 1
x[53] 0
x[54] 1
x[55] 1
x[56] 0
x[57] 0
x[58] 1
x[59] 0
x[60] 1
x[61] 0
x[62] 0
x[63] 0
x[64] 1
x[65] 1
x[66] 1
x[67] 0
x[68] 1
x[69] 0
x[70] 0
x[71] 1
x[72] 1
x[73] 1
x[74] 1
x[75] 1
x[76] 1
x[77] 0
x[78] 0
x[79] 0
x[80] 1
x[81] 1
x[82] 1
x[83] 0
x[84] 1
x[85] 1
x[86] 0
x[87] 1
x[88] 1
x[89] 1
x[90] 1
x[91] 0
x[92] 0
x[93] 1
x[94] 1
x[95] 0
x[96] 0
x[97] 0
x[98] 0
x[99] 0
x[100] 0
x[101] 0
x[102] 0
x[103] 1
x[104] 1
x[105] 1
x[106] 0
x[107] 1
x[108] 1
x[109] 1
x[110] 0
x[111] 1
x[112] 0
x[113] 1
x[114] 0
x[115] 0
x[116] 0
x[117] 0
x[118] 0
x[119] 0
x[120] 0
x[121] 0
x[122] 1
x[123] 0
x[124] 1
x[125] 1
x[126] 1
x[127] 1
x[128] 0
x[129] 1
x[130] 1
x[131] 0
x[132] 0
x[133] 1
x[134] 0
x[135] 0
x[136] 0
x[137] 1
x[138] 0
x[139] 0
x[140] 1
x[141] 0
x[142] 0
x[143] 0
x[144] 0
x[145] 0
x[146] 0
x[147] 1
x[148] 1
x[149] 1
x[150] 1
x[151] 1
x[152] 1
x[153] 0
x[154] 1
x[155] 0
x[156] 1
x[157] 1
x[158] 1
x[159] 0
x[160] 1
x[161] 1
x[162] 0
x[163] 1
x[164] 0
x[165] 0
x[166] 1
x[167] 1
x[168] 1
x[169] 0
x[170] 0
x[171] 0
x[172] 1
x[173] 0
x[174] 1
x[175] 1
x[176] 0
x[177] 0
x[178] 1
x[179] 1
x[180] 1
x[181] 0
x[182] 0
x[183] 0
x[184] 1
x[185] 1
x[186] 1
x[187] 0
x[188] 1
x[189] 1
x[190] 1
x[191] 1
x[192] 0
x[193] 1
x[194] 1
x[195] 0
x[196] 0
x[197] 1
x[198] 1
x[199] 1
x[200] 1
x[201] 0
x[202] 1
x[203] 1
x[204] 1
x[205] 0
x[206] 1
x[207] 0
x[208] 0
x[209] 0
x[210] 0
x[211] 1
x[212] 0
x[213] 0
x[214] 0
x[215] 1
x[216] 0
x[217] 1
x[218] 1
x[219] 1
x[220] 1
x[221] 1
x[222] 1
x[223] 0
x[224] 1
x[225] 1
x[226] 1
x[227] 0
x[228] 1
x[229] 1
x[230] 1
x[231] 1
x[232] 1
x[233] 0
x[234] 1
x[235] 1
x[236] 0
x[237] 1
x[238] 1
x[239] 1
x[240] 0
x[241] 1
x[242] 0
x[243] 1
x[244] 1
x[245] 0
x[246] 1
x[247] 0
x[248] 0
x[249] 1
x[250] 0
x[251] 1
x[252] 0
x[253] 0
x[254] 1
x[255] 0
x[256] 1
x[257] 1
x[258] 1
x[259] 1
x[260] 1
x[261] 1
x[262] 1
x[263] 0
x[264] 0
x[265] 0
x[266] 0
x[267] 1
x[268] 1
x[269] 1
x[270] 1
x[271] 1
x[272] 0
x[273] 0
x[274] 1
x[275] 0
x[276] 0
x[277] 1
x[278] 1
x[279] 1
x[280] 0
x[281] 0
x[282] 0
x[283] 0
x[284] 1
x[285] 0
x[286] 1
x[287] 0
x[288] 1
x[289] 1
x[290] 0
x[291] 0
x[292] 1
x[293] 0
x[294] 0
x[295] 1
x[296] 1
x[297] 1
x[298] 1
x[299] 1
x[300] 0
x[301] 0
x[302] 0
x[303] 1
x[304] 1
x[305] 0
x[306] 1
x[307] 0
x[308] 0
x[309] 1
x[310] 1
x[311] 0
x[312] 0
x[313] 1
x[314] 1
x[315] 0
x[316] 1
x[317] 0
x[318] 0
x[319] 1
x[320] 1
x[321] 1
x[322] 1
x[323] 1
x[324] 0
x[325] 0
x[326] 0
x[327] 1
x[328] 1
x[329] 1
x[330] 0
x[331] 1
x[332] 1
x[333] 0
x[334] 0
x[335] 1
x[336] 0
x[337] 1
x[338] 0
x[339] 1
x[340] 0
x[341] 1
x[342] 0
x[343] 1
x[344] 0
x[345] 0
x[346] 1
x[347] 1
x[348] 0
x[349] 1
x[350] 1
x[351] 0
x[352] 0
x[353] 0
x[354] 1
x[355] 0
x[356] 1
x[357] 1
x[358] 1
x[359] 0
x[360] 1
x[361] 1
x[362] 1
x[363] 1
x[364] 1
x[365] 0
x[366] 0
x[367] 1
x[368] 0
x[369] 1
x[370] 1
x[371] 1
x[372] 1
x[373] 1
x[374] 0
x[375] 0
x[376] 0
x[377] 1
x[378] 1
x[379] 1
x[380] 0
x[381] 0
x[382] 1
x[383] 0
x[384] 1
x[385] 1
x[386] 1
x[387] 1
x[388] 0
x[389] 0
x[390] 0
x[391] 1
x[392] 0
x[393] 1
x[394] 1
x[395] 0
x[396] 1
x[397] 0
x[398] 0
x[399] 0
x[400] 1
x[401] 1
x[402] 0
x[403] 0
x[404] 1
x[405] 0
x[406] 0
x[407] 0
x[408] 1
x[409] 1
x[410] 0
x[411] 0
x[412] 1
x[413] 1
x[414] 1
x[415] 0
x[416] 0
x[417] 1
x[418] 0
x[419] 1
x[420] 1
x[421] 0
x[422] 0
x[423] 0
x[424] 1
x[425] 0
x[426] 0
x[427] 1
x[428] 1
x[429] 0
x[430] 0
x[431] 1
x[432] 0
x[433] 0
x[434] 1
x[435] 0
x[436] 1
x[437] 0
x[438] 0
x[439] 1
x[440] 0
x[441] 0
x[442] 1
x[443] 0
x[444] 0
x[445] 1
x[446] 0
x[447] 1
x[448] 1
x[449] 1
x[450] 1
x[451] 1
x[452] 0
x[453] 1
x[454] 0
x[455] 0
x[456] 0
x[457] 0
x[458] 1
x[459] 1
x[460] 0
x[461] 1
x[462] 0
x[463] 1
x[464] 1
x[465] 1
x[466] 1
x[467] 0
x[468] 1
x[469] 0
x[470] 1
x[471] 1
x[472] 0
x[473] 1
x[474] 1
x[475] 1
x[476] 0
x[477] 1
x[478] 0
x[479] 1
x[480] 0
x[481] 1
x[482] 1
x[483] 1
x[484] 0
x[485] 1
x[486] 1
x[487] 1
x[488] 0
x[489] 1
x[490] 0
x[491] 0
x[492] 1
x[493] 1
x[494] 0
x[495] 0
x[496] 1
x[497] 0
x[498] 1
x[499] 1
x[500] 1
x[501] 0
x[502] 1
x[503] 1
x[504] 0
x[505] 1
x[506] 0
x[507] 1
x[508] 1
x[509] 1
x[510] 0
x[511] 0
x[512] 1
x[513] 1
x[514] 1
x[515] 0
x[516] 1
x[517] 0
x[518] 1
x[519] 1
x[520] 0
x[521] 0
x[522] 1
x[523] 1
x[524] 0
x[525] 0
x[526] 0
x[527] 1
x[528] 0
x[529] 0
x[530] 0
x[531] 1
x[532] 1
x[533] 1
x[534] 0
x[535] 0
x[536] 1
x[537] 0
x[538] 0
x[539] 1
x[540] 0
x[541] 1
x[542] 0
x[543] 1
x[544] 1
x[545] 1
x[546] 0
x[547] 1
x[548] 0
x[549] 1
x[550] 1
x[551] 1
x[552] 0
x[553] 1
x[554] 1
x[555] 0
x[556] 1
x[557] 0
x[558] 0
x[559] 1
x[560] 1
x[561] 1
x[562] 0
x[563] 0
x[564] 0
x[565] 0
x[566] 1
x[567] 1
x[568] 1
x[569] 0
x[570] 0
x[571] 1
x[572] 1
x[573] 1
x[574] 0
x[575] 0
x[576] 1
x[577] 1
x[578] 1
x[579] 1
x[580] 1
x[581] 0
x[582] 1
x[583] 1
x[584] 0
x[585] 0
x[586] 1
x[587] 1
x[588] 1
x[589] 1
x[590] 0
x[591] 1
x[592] 1
x[593] 1
x[594] 0
x[595] 1
x[596] 0
x[597] 1
x[598] 1
x[599] 0
x[600] 0
x[601] 0
x[602] 0
x[603] 0
x[604] 0
x[605] 1
x[606] 1
x[607] 1
x[608] 0
x[609] 1
x[610] 0
x[611] 1
x[612] 0
x[613] 1
x[614] 1
x[615] 1
x[616] 0
x[617] 1
x[618] 1
x[619] 0
x[620] 0
x[621] 0
x[622] 0
x[623] 1
x[624] 1
x[625] 1
x[626] 1
x[627] 0
x[628] 0
x[629] 0
x[630] 1
x[631] 1
x[632] 1
x[633] 1
x[634] 0
x[635] 1
x[636] 0
x[637] 1
x[638] 0
x[639] 1
x[640] 0
x[641] 0
x[642] 0
x[643] 1
x[644] 0
x[645] 0
x[646] 1
x[647] 1
x[648] 0
x[649] 0
x[650] 1
x[651] 1
x[652] 1
x[653] 0
x[654] 1
x[655] 1
x[656] 1
x[657] 1
x[658] 0
x[659] 0
x[660] 0
x[661] 0
x[662] 1
x[663] 0
x[664] 0
x[665] 0
x[666] 1
x[667] 1
x[668] 1
x[669] 1
x[670] 1
x[671] 1
x[672] 1
x[673] 1
x[674] 0
x[675] 1
x[676] 0
x[677] 0
x[678] 0
x[679] 0
x[680] 1
x[681] 1
x[682] 1
x[683] 1
x[684] 1
x[685] 1
x[686] 0
x[687] 0
x[688] 0
x[689] 0
x[690] 1
x[691] 0
x[692] 0
x[693] 0
x[694] 0
x[695] 0
x[696] 0
x[697] 0
x[698] 1
x[699] 1
x[700] 1
x[701] 1
x[702] 0
x[703] 0
x[704] 1
x[705] 1
x[706] 0
x[707] 1
x[708] 0
x[709] 0
x[710] 1
x[711] 1
x[712] 1
x[713] 0
x[714] 1
x[715] 0
x[716] 1
x[717] 0
x[718] 1
x[719] 0
x[720] 1
x[721] 1
x[722] 1
x[723] 1
x[724] 0
x[725] 1
x[726] 0
x[727] 1
x[728] 0
x[729] 0
x[730] 1
x[731] 1
x[732] 0
x[733] 1
x[734] 1
x[735] 1
x[736] 0
x[737] 0
x[738] 0
x[739] 1
x[740] 1
x[741] 0
x[742] 1
x[743] 1
x[744] 0
x[745] 0
x[746] 1
x[747] 1
x[748] 1
x[749] 0
x[750] 0
x[751] 1
x[752] 0
x[753] 1
x[754] 1
x[755] 1
x[756] 1
x[757] 0
x[758] 1
x[759] 0
x[760] 1
x[761] 0
x[762] 0
x[763] 0
x[764] 0
x[765] 0
x[766] 1
x[767] 1
x[768] 0
x[769] 0
x[770] 1
x[771] 1
x[772] 0
x[773] 0
x[774] 1
x[775] 1
x[776] 1
x[777] 0
x[778] 0
x[779] 1
x[780] 0
x[781] 1
x[782] 1
x[783] 0
x[784] 1
x[785] 1
x[786] 0
x[787] 0
x[788] 0
x[789] 0
x[790] 0
x[791] 1
x[792] 1
x[793] 1
x[794] 1
x[795] 1
x[796] 0
x[797] 0
x[798] 0
x[799] 1
x[800] 1
x[801] 1
x[802] 1
x[803] 0
x[804] 1
x[805] 1
x[806] 0
x[807] 0
x[808] 0
x[809] 0
x[810] 0
x[811] 1
x[812] 1
x[813] 1
x[814] 0
x[815] 0
x[816] 0
x[817] 1
x[818] 0
x[819] 0
x[820] 1
x[821] 1
x[822] 0
x[823] 0
x[824] 1
x[825] 1
x[826] 0
x[827] 1
x[828] 1
x[829] 1
x[830] 0
x[831] 1
x[832] 1
x[833] 0
x[834] 0
x[835] 1
x[836] 0
x[837] 1
x[838] 1
x[839] 1
x[840] 1
x[841] 0
x[842] 1
x[843] 1
x[844] 1
x[845] 1
x[846] 1
x[847] 0
x[848] 1
x[849] 0
x[850] 0
x[851] 0
x[852] 1
x[853] 1
x[854] 0
x[855] 1
x[856] 0
x[857] 1
x[858] 1
x[859] 1
x[860] 0
x[861] 0
x[862] 0
x[863] 0
x[864] 1
x[865] 1
x[866] 1
x[867] 1
x[868] 1
x[869] 1
x[870] 0
x[871] 1
x[872] 1
x[873] 0
x[874] 1
x[875] 1
x[876] 1
x[877] 1
x[878] 1
x[879] 1
x[880] 1
x[881] 0
x[882] 0
x[883] 0
x[884] 1
x[885] 1
x[886] 0
x[887] 0
x[888] 1
x[889] 1
x[890] 0
x[891] 1
x[892] 0
x[893] 1
x[894] 1
x[895] 0
x[896] 1
x[897] 1
x[898] 0
x[899] 0
x[900] 0
x[901] 1
x[902] 0
x[903] 1
x[904] 1
x[905] 1
x[906] 1
x[907] 1
x[908] 1
x[909] 1
x[910] 1
x[911] 1
x[912] 1
x[913] 0
x[914] 1
x[915] 0
x[916] 0
x[917] 1
x[918] 1
x[919] 1
x[920] 1
x[921] 0
x[922] 1
x[923] 0
x[924] 0
x[925] 1
x[926] 1
x[927] 0
x[928] 0
x[929] 0
x[930] 0
x[931] 0
x[932] 1
x[933] 0
x[934] 0
x[935] 1
x[936] 1
x[937] 1
x[938] 1
x[939] 1
x[940] 1
x[941] 1
x[942] 0
x[943] 1
x[944] 0
x[945] 1
x[946] 0
x[947] 0
x[948] 0
x[949] 1
x[950] 1
x[951] 1
x[952] 0
x[953] 1
x[954] 0
x[955] 1
x[956] 0
x[957] 1
x[958] 1
x[959] 1
x[960] 1
x[961] 1
x[962] 1
x[963] 1
x[964] 0
x[965] 1
x[966] 0
x[967] 1
x[968] 0
x[969] 1
x[970] 0
x[971] 1
x[972] 0
x[973] 0
x[974] 1
x[975] 1
x[976] 1
x[977] 1
x[978] 0
x[979] 0
x[980] 0
x[981] 1
x[982] 1
x[983] 1
x[984] 0
x[985] 1
x[986] 0
x[987] 1
x[988] 1
x[989] 1
x[990] 1
x[991] 1
x[992] 1
x[993] 1
x[994] 1
x[995] 0
x[996] 0
x[997] 1
x[998] 1
x[999] 0
